Geographic Exponential Decay
80 215 294 186 56 230 142 189 174 28 50 150 232 14 21 35 135 172 171 255 199 59 120 71 213 258 134 113 8 203 101 78 275 122 208 303 168 233 194 279 108 73 196 165 138 95 13 289 271 158 245 221 222 197 180 119 63 90 229 40 118 131 54 286 92 260 185 2 216 175 44 163 31 49 45 27 117 210 68 43 207
p edge 320 320
e 0 278 2.0
e 1 300 1.0
e 1 0 2.0
e 2 185 68.0
e 2 175 43.0
e 2 276 54.0
e 2 1 20.0
e 3 151 3.0
e 3 2 39.0
e 4 104 10.0
e 4 3 1.0
e 5 54 98.0
e 5 4 2.0
e 6 105 3.0
e 6 5 4.0
e 7 202 2.0
e 7 6 3.0
e 8 234 33.0
e 8 78 81.0
e 8 274 96.0
e 8 7 78.0
e 9 78 53.0
e 10 240 1.0
e 10 8 82.0
e 11 32 2.0
e 11 10 4.0
e 12 208 40.0
e 12 11 5.0
e 13 176 22.0
e 13 220 90.0
e 13 239 100.0
e 13 12 85.0
e 14 256 47.0
e 14 19 26.0
e 14 260 74.0
e 14 13 89.0
e 15 69 3.0
e 15 14 33.0
e 16 261 2.0
e 16 15 1.0
e 17 287 1.0
e 17 16 1.0
e 18 20 1.0
e 18 17 2.0
e 21 311 66.0
e 21 24 70.0
e 21 288 5.0
e 21 18 45.0
e 22 147 1.0
e 22 21 73.0
e 23 25 1.0
e 23 22 5.0
e 26 81 12.0
e 26 23 1.0
e 27 207 30.0
e 27 28 4.0
e 27 116 95.0
e 28 304 52.0
e 28 301 5.0
e 29 222 35.0
e 29 26 12.0
e 30 255 76.0
e 31 226 66.0
e 31 197 11.0
e 31 317 89.0
e 31 29 65.0
e 33 167 1.0
e 33 31 3.0
e 34 228 4.0
e 34 33 5.0
e 35 157 97.0
e 35 110 78.0
e 35 302 16.0
e 35 34 56.0
e 36 303 24.0
e 36 35 64.0
e 37 241 11.0
e 37 36 3.0
e 38 165 1.0
e 39 74 2.0
e 39 37 11.0
e 40 144 28.0
e 40 161 58.0
e 40 229 68.0
e 40 39 19.0
e 41 96 1.0
e 41 40 18.0
e 42 43 89.0
e 42 41 1.0
e 43 138 51.0
e 43 264 28.0
e 44 45 22.0
e 44 120 72.0
e 44 46 38.0
e 44 42 74.0
e 45 200 24.0
e 45 293 13.0
e 47 90 47.0
e 47 44 47.0
e 48 201 1.0
e 48 47 5.0
e 49 80 6.0
e 49 308 15.0
e 49 50 15.0
e 49 48 4.0
e 50 133 48.0
e 50 114 27.0
e 51 224 2.0
e 51 49 90.0
e 52 246 8.0
e 52 51 4.0
e 53 269 1.0
e 53 52 10.0
e 54 87 8.0
e 54 55 22.0
e 56 97 8.0
e 56 57 78.0
e 56 134 22.0
e 58 59 65.0
e 58 53 2.0
e 59 270 96.0
e 59 162 7.0
e 60 272 5.0
e 60 58 4.0
e 61 154 2.0
e 61 60 1.0
e 62 63 8.0
e 62 61 1.0
e 63 195 38.0
e 63 198 20.0
e 64 65 10.0
e 64 62 1.0
e 66 91 5.0
e 66 64 1.0
e 67 139 2.0
e 67 66 2.0
e 68 289 62.0
e 68 306 32.0
e 68 70 58.0
e 68 67 84.0
e 71 72 54.0
e 71 73 32.0
e 71 182 79.0
e 71 68 34.0
e 73 106 16.0
e 73 145 99.0
e 75 76 18.0
e 75 71 91.0
e 77 136 4.0
e 77 75 8.0
e 78 84 36.0
e 79 196 34.0
e 82 134 10.0
e 83 199 39.0
e 85 250 2.0
e 85 77 1.0
e 86 90 50.0
e 88 233 10.0
e 89 181 1.0
e 89 85 14.0
e 90 92 44.0
e 92 307 44.0
e 92 184 27.0
e 93 152 8.0
e 93 89 22.0
e 94 169 1.0
e 94 93 1.0
e 95 98 80.0
e 95 99 85.0
e 95 100 77.0
e 95 94 1.0
e 101 102 99.0
e 101 193 31.0
e 101 222 42.0
e 103 173 1.0
e 103 95 41.0
e 107 265 2.0
e 107 103 1.0
e 108 286 88.0
e 108 109 56.0
e 108 309 97.0
e 111 194 73.0
e 112 113 55.0
e 112 107 1.0
e 113 115 69.0
e 113 252 17.0
e 117 118 17.0
e 117 242 79.0
e 117 266 38.0
e 117 112 94.0
e 118 218 17.0
e 118 282 12.0
e 119 120 11.0
e 119 156 42.0
e 119 121 42.0
e 120 159 22.0
e 122 163 60.0
e 122 185 42.0
e 122 146 20.0
e 123 124 1.0
e 123 117 81.0
e 125 267 5.0
e 125 123 2.0
e 126 127 1.0
e 126 125 10.0
e 128 257 25.0
e 128 126 6.0
e 129 221 23.0
e 130 205 1.0
e 130 128 10.0
e 131 171 18.0
e 131 148 90.0
e 131 132 30.0
e 134 135 63.0
e 135 137 48.0
e 135 138 23.0
e 138 140 53.0
e 141 142 13.0
e 141 130 5.0
e 142 299 50.0
e 142 149 100.0
e 143 150 78.0
e 143 141 5.0
e 150 153 72.0
e 150 225 35.0
e 155 298 2.0
e 155 143 1.0
e 158 160 42.0
e 158 163 2.0
e 158 164 73.0
e 163 165 71.0
e 165 262 6.0
e 166 310 1.0
e 166 155 1.0
e 168 219 92.0
e 168 170 74.0
e 168 227 49.0
e 168 166 68.0
e 171 172 67.0
e 171 174 13.0
e 172 295 15.0
e 172 236 49.0
e 174 292 26.0
e 174 175 65.0
e 175 312 8.0
e 177 178 1.0
e 177 168 76.0
e 179 180 44.0
e 180 183 64.0
e 180 185 16.0
e 186 187 21.0
e 186 188 54.0
e 186 189 87.0
e 186 177 42.0
e 189 190 91.0
e 189 313 91.0
e 191 192 5.0
e 191 186 26.0
e 194 196 75.0
e 194 197 97.0
e 196 197 71.0
e 199 203 37.0
e 199 271 65.0
e 203 204 90.0
e 203 206 47.0
e 207 208 5.0
e 207 209 32.0
e 208 210 68.0
e 210 211 90.0
e 210 212 53.0
e 213 214 67.0
e 213 215 66.0
e 213 294 50.0
e 215 303 59.0
e 215 216 82.0
e 216 217 82.0
e 216 221 37.0
e 221 268 11.0
e 222 263 76.0
e 223 229 43.0
e 229 230 7.0
e 230 231 10.0
e 230 232 51.0
e 232 233 52.0
e 232 284 7.0
e 233 235 71.0
e 237 257 25.0
e 238 314 9.0
e 238 191 15.0
e 243 244 4.0
e 243 238 5.0
e 245 247 52.0
e 245 248 62.0
e 245 249 28.0
e 245 243 34.0
e 251 253 1.0
e 251 245 45.0
e 254 255 83.0
e 255 258 11.0
e 258 259 33.0
e 258 260 91.0
e 260 271 8.0
e 271 273 66.0
e 275 277 76.0
e 275 279 61.0
e 275 280 3.0
e 275 251 56.0
e 279 281 52.0
e 279 283 31.0
e 285 286 64.0
e 286 289 62.0
e 289 290 72.0
e 291 294 67.0
e 294 305 76.0
e 296 297 2.0
e 296 275 33.0
e 303 315 2.0
e 316 318 1.0
e 316 296 1.0
e 319 316 24.0
